
Gurobi 12.0.1 (mac64[arm], gurobi_cl) logging started Mon Sep  8 15:32:53 2025

Set parameter Username
Set parameter LicenseID to value 2585575
Set parameter LogFile to value "gurobi.log"
Using license file /Users/daniel/gurobi.lic
Academic license - for non-commercial use only - expires 2025-11-15
